
Gurobi 9.5.2 (win64) logging started Fri Jan 26 11:53:59 2024

Set parameter LogFile to value "./ccga_results/2024-01-26 11-53-57-475/MSP_TimeStampConvert_gurobi_log.txt"
Set parameter TimeLimit to value 35998

Gurobi 9.5.2 (win64) logging started Fri Jan 26 11:53:59 2024

Set parameter LogFile to value "./ccga_results/2024-01-26 11-53-57-475/MSP_TimeStampConvert_gurobi_log.txt"
Set parameter TimeLimit to value 35998
Gurobi Optimizer version 9.5.2 build v9.5.2rc0 (win64)
Thread count: 10 physical cores, 20 logical processors, using up to 20 threads
Optimize a model with 600 rows, 457 columns and 1482 nonzeros
Model fingerprint: 0xe63f0f4b
Variable types: 25 continuous, 432 integer (432 binary)
Coefficient statistics:
  Matrix range     [1e+00, 1e+00]
  Objective range  [1e+00, 1e+00]
  Bounds range     [1e+03, 1e+03]
  RHS range        [1e+00, 1e+00]
Found heuristic solution: objective 24000.000000

Explored 0 nodes (0 simplex iterations) in 0.00 seconds (0.00 work units)
Thread count was 1 (of 20 available processors)

Solution count 1: 24000 

Optimal solution found (tolerance 1.00e-02)
Best objective 2.400000000000e+04, best bound 2.400000000000e+04, gap 0.0000%

User-callback calls 21, time in user-callback 0.00 sec
Set parameter TimeLimit to value 35997
Gurobi Optimizer version 9.5.2 build v9.5.2rc0 (win64)
Thread count: 10 physical cores, 20 logical processors, using up to 20 threads
Optimize a model with 2161 rows, 961 columns and 6497 nonzeros
Model fingerprint: 0x8f666f25
Variable types: 481 continuous, 480 integer (480 binary)
Coefficient statistics:
  Matrix range     [1e-01, 8e+02]
  Objective range  [1e+00, 1e+00]
  Bounds range     [1e+03, 1e+03]
  RHS range        [1e+00, 1e+08]

MIP start from previous solve did not produce a new incumbent solution

Presolve removed 614 rows and 215 columns
Presolve time: 0.03s
Presolved: 1547 rows, 746 columns, 5192 nonzeros
Variable types: 404 continuous, 342 integer (342 binary)
Found heuristic solution: objective 12398.605260
Found heuristic solution: objective 12409.263154

Root relaxation: objective 2.000000e+04, 971 iterations, 0.01 seconds (0.01 work units)

    Nodes    |    Current Node    |     Objective Bounds      |     Work
 Expl Unexpl |  Obj  Depth IntInf | Incumbent    BestBd   Gap | It/Node Time

     0     0 20000.0000    0    2 12409.2632 20000.0000  61.2%     -    0s
H    0     0                    20000.000000 20000.0000  0.00%     -    0s
     0     0 20000.0000    0    2 20000.0000 20000.0000  0.00%     -    0s

Explored 1 nodes (1421 simplex iterations) in 0.08 seconds (0.06 work units)
Thread count was 20 (of 20 available processors)

Solution count 3: 20000 12409.3 12398.6 

Optimal solution found (tolerance 1.00e-02)
Best objective 2.000000000000e+04, best bound 2.000000000000e+04, gap 0.0000%

User-callback calls 703, time in user-callback 0.00 sec
Gurobi Optimizer version 9.5.2 build v9.5.2rc0 (win64)
Thread count: 10 physical cores, 20 logical processors, using up to 20 threads
Optimize a model with 3722 rows, 1465 columns and 11512 nonzeros
Model fingerprint: 0x98fa3cb1
Variable types: 937 continuous, 528 integer (528 binary)
Coefficient statistics:
  Matrix range     [1e-01, 8e+02]
  Objective range  [1e+00, 1e+00]
  Bounds range     [1e+03, 1e+03]
  RHS range        [1e+00, 1e+08]

MIP start from previous solve did not produce a new incumbent solution

Presolve removed 1747 rows and 585 columns
Presolve time: 0.05s
Presolved: 1975 rows, 880 columns, 6730 nonzeros
Variable types: 586 continuous, 294 integer (294 binary)
Found heuristic solution: objective 7691.7458335

Root relaxation: objective 1.700183e+04, 858 iterations, 0.01 seconds (0.01 work units)

    Nodes    |    Current Node    |     Objective Bounds      |     Work
 Expl Unexpl |  Obj  Depth IntInf | Incumbent    BestBd   Gap | It/Node Time

     0     0 17001.8272    0   13 7691.74583 17001.8272   121%     -    0s
H    0     0                    16721.111111 17001.8272  1.68%     -    0s
     0     0 16971.4151    0   17 16721.1111 16971.4151  1.50%     -    0s
     0     0 16971.4151    0   17 16721.1111 16971.4151  1.50%     -    0s
     0     0 16971.4151    0   22 16721.1111 16971.4151  1.50%     -    0s
     0     0 16941.3023    0   22 16721.1111 16941.3023  1.32%     -    0s
H    0     0                    16793.611111 16906.0156  0.67%     -    0s

Cutting planes:
  Gomory: 2
  Cover: 9
  Implied bound: 16
  Clique: 11
  MIR: 26
  Flow cover: 26
  RLT: 1
  Relax-and-lift: 8

Explored 1 nodes (1312 simplex iterations) in 0.37 seconds (0.15 work units)
Thread count was 20 (of 20 available processors)

Solution count 3: 16793.6 16721.1 7691.75 

Optimal solution found (tolerance 1.00e-02)
Best objective 1.679361111111e+04, best bound 1.690601556605e+04, gap 0.6693%

User-callback calls 995, time in user-callback 0.00 sec
Gurobi Optimizer version 9.5.2 build v9.5.2rc0 (win64)
Thread count: 10 physical cores, 20 logical processors, using up to 20 threads
Optimize a model with 5283 rows, 1969 columns and 16527 nonzeros
Model fingerprint: 0x46152328
Variable types: 1393 continuous, 576 integer (576 binary)
Coefficient statistics:
  Matrix range     [1e-01, 8e+02]
  Objective range  [1e+00, 1e+00]
  Bounds range     [1e+03, 1e+03]
  RHS range        [1e+00, 1e+08]

MIP start from previous solve did not produce a new incumbent solution

Presolve removed 2336 rows and 737 columns
Presolve time: 0.07s
Presolved: 2947 rows, 1232 columns, 10182 nonzeros
Variable types: 971 continuous, 261 integer (261 binary)
Found heuristic solution: objective 6988.7971630

Root relaxation: objective 1.296569e+04, 1574 iterations, 0.02 seconds (0.02 work units)

    Nodes    |    Current Node    |     Objective Bounds      |     Work
 Expl Unexpl |  Obj  Depth IntInf | Incumbent    BestBd   Gap | It/Node Time

     0     0 12965.6941    0   27 6988.79716 12965.6941  85.5%     -    0s
     0     0 12954.7418    0   56 6988.79716 12954.7418  85.4%     -    0s
H    0     0                    11669.722222 12954.7418  11.0%     -    0s
H    0     0                    12276.277778 12954.7418  5.53%     -    0s
     0     0 12954.7418    0   55 12276.2778 12954.7418  5.53%     -    0s
     0     0 12912.7303    0   66 12276.2778 12912.7303  5.18%     -    0s
     0     0 12912.7303    0   62 12276.2778 12912.7303  5.18%     -    0s
     0     0 12912.7303    0   67 12276.2778 12912.7303  5.18%     -    0s
H    0     0                    12411.777778 12897.8095  3.92%     -    0s
     0     0 12897.8095    0   69 12411.7778 12897.8095  3.92%     -    0s
     0     0 12873.0661    0   68 12411.7778 12873.0661  3.72%     -    0s
     0     0 12861.6256    0   73 12411.7778 12861.6256  3.62%     -    0s
     0     0 12852.7788    0   77 12411.7778 12852.7788  3.55%     -    0s
     0     0 12850.3807    0   77 12411.7778 12850.3807  3.53%     -    0s
H    0     0                    12506.777778 12844.8458  2.70%     -    0s
     0     0 12833.9019    0   76 12506.7778 12833.9019  2.62%     -    0s
     0     0 12827.6495    0   59 12506.7778 12827.6495  2.57%     -    0s
     0     0 12827.6495    0   62 12506.7778 12827.6495  2.57%     -    0s
     0     0 12810.3437    0   61 12506.7778 12810.3437  2.43%     -    0s
     0     0 12810.2369    0   70 12506.7778 12810.2369  2.43%     -    0s
     0     0 12810.2369    0   72 12506.7778 12810.2369  2.43%     -    0s
     0     0 12800.1277    0   73 12506.7778 12800.1277  2.35%     -    0s
H    0     0                    12513.777778 12799.1394  2.28%     -    0s
     0     0 12799.1394    0   78 12513.7778 12799.1394  2.28%     -    0s
     0     0 12799.1394    0   77 12513.7778 12799.1394  2.28%     -    0s
     0     0 12799.1394    0   87 12513.7778 12799.1394  2.28%     -    0s
     0     0 12799.1394    0   80 12513.7778 12799.1394  2.28%     -    0s
     0     0 12765.2137    0   85 12513.7778 12765.2137  2.01%     -    1s
     0     0 12765.2137    0   92 12513.7778 12765.2137  2.01%     -    1s
     0     0 12765.2137    0   85 12513.7778 12765.2137  2.01%     -    1s
     0     0 12765.2137    0   81 12513.7778 12765.2137  2.01%     -    1s
     0     0 12763.8295    0   77 12513.7778 12763.8295  2.00%     -    1s
     0     0 12753.7137    0   72 12513.7778 12753.7137  1.92%     -    1s
     0     0 12722.0471    0   71 12513.7778 12722.0471  1.66%     -    1s
     0     0 12722.0471    0   71 12513.7778 12722.0471  1.66%     -    1s
     0     0 12722.0471    0   74 12513.7778 12722.0471  1.66%     -    1s
     0     0 12722.0471    0   73 12513.7778 12722.0471  1.66%     -    1s
     0     0 12722.0471    0   80 12513.7778 12722.0471  1.66%     -    1s
     0     0 12722.0471    0   80 12513.7778 12722.0471  1.66%     -    1s
     0     0 12709.0371    0   73 12513.7778 12709.0371  1.56%     -    1s
     0     0 12671.0371    0   75 12513.7778 12671.0371  1.26%     -    1s
     0     0 12671.0371    0   72 12513.7778 12671.0371  1.26%     -    1s
     0     0 12669.8262    0   62 12513.7778 12669.8262  1.25%     -    1s
     0     0 12669.8262    0   69 12513.7778 12669.8262  1.25%     -    1s
     0     0 12669.8262    0   74 12513.7778 12669.8262  1.25%     -    1s
     0     0 12669.8262    0   74 12513.7778 12669.8262  1.25%     -    1s
     0     0 12669.8262    0   61 12513.7778 12669.8262  1.25%     -    1s
     0     0 12669.8262    0   60 12513.7778 12669.8262  1.25%     -    1s
     0     2 12669.8262    0   60 12513.7778 12669.8262  1.25%     -    1s

Cutting planes:
  Gomory: 4
  Cover: 16
  Implied bound: 41
  Clique: 1
  MIR: 133
  StrongCG: 2
  Flow cover: 96
  Relax-and-lift: 5

Explored 1385 nodes (57182 simplex iterations) in 2.86 seconds (1.42 work units)
Thread count was 20 (of 20 available processors)

Solution count 6: 12513.8 12506.8 12411.8 ... 6988.8

Optimal solution found (tolerance 1.00e-02)
Best objective 1.251377777778e+04, best bound 1.263384739862e+04, gap 0.9595%

User-callback calls 4307, time in user-callback 0.00 sec
Set parameter TimeLimit to value 35994
Gurobi Optimizer version 9.5.2 build v9.5.2rc0 (win64)
Thread count: 10 physical cores, 20 logical processors, using up to 20 threads
Optimize a model with 6844 rows, 2473 columns and 21542 nonzeros
Model fingerprint: 0xbee84541
Variable types: 1849 continuous, 624 integer (624 binary)
Coefficient statistics:
  Matrix range     [1e-01, 8e+02]
  Objective range  [1e+00, 1e+00]
  Bounds range     [1e+03, 1e+03]
  RHS range        [1e+00, 1e+08]

MIP start from previous solve did not produce a new incumbent solution

Presolve removed 2883 rows and 871 columns
Presolve time: 0.12s
Presolved: 3961 rows, 1602 columns, 13893 nonzeros
Variable types: 1353 continuous, 249 integer (249 binary)
Found heuristic solution: objective 6381.2010517

Root relaxation: objective 9.943504e+03, 2505 iterations, 0.05 seconds (0.06 work units)

    Nodes    |    Current Node    |     Objective Bounds      |     Work
 Expl Unexpl |  Obj  Depth IntInf | Incumbent    BestBd   Gap | It/Node Time

     0     0 9943.50448    0   55 6381.20105 9943.50448  55.8%     -    0s
     0     0 9927.10705    0   60 6381.20105 9927.10705  55.6%     -    0s
     0     0 9889.94664    0   64 6381.20105 9889.94664  55.0%     -    0s
     0     0 9889.94359    0   58 6381.20105 9889.94359  55.0%     -    0s
     0     0 9809.36119    0   75 6381.20105 9809.36119  53.7%     -    0s
     0     0 9798.62863    0   73 6381.20105 9798.62863  53.6%     -    0s
     0     0 9798.62863    0   73 6381.20105 9798.62863  53.6%     -    0s
     0     0 9781.40319    0   76 6381.20105 9781.40319  53.3%     -    0s
H    0     0                    8388.3021812 9781.40319  16.6%     -    0s
     0     0 9779.33338    0   69 8388.30218 9779.33338  16.6%     -    0s
     0     0 9779.26775    0   78 8388.30218 9779.26775  16.6%     -    0s
     0     0 9778.78892    0   78 8388.30218 9778.78892  16.6%     -    0s
     0     0 9778.78892    0   78 8388.30218 9778.78892  16.6%     -    0s
     0     0 9770.64290    0   86 8388.30218 9770.64290  16.5%     -    1s
     0     0 9764.56355    0   74 8388.30218 9764.56355  16.4%     -    1s
     0     0 9764.56355    0   74 8388.30218 9764.56355  16.4%     -    1s
H    0     0                    9340.4629630 9764.41269  4.54%     -    1s
     0     0 9764.41269    0   74 9340.46296 9764.41269  4.54%     -    1s
     0     0 9764.41269    0   69 9340.46296 9764.41269  4.54%     -    1s
H    0     0                    9387.9629630 9764.41269  4.01%     -    1s
     0     0 9764.41269    0   77 9387.96296 9764.41269  4.01%     -    1s
     0     0 9764.41269    0   70 9387.96296 9764.41269  4.01%     -    1s
     0     0 9764.40171    0   43 9387.96296 9764.40171  4.01%     -    1s
     0     0 9764.40171    0   54 9387.96296 9764.40171  4.01%     -    1s
     0     0 9764.02918    0   54 9387.96296 9764.02918  4.01%     -    1s
     0     0 9745.43812    0   49 9387.96296 9745.43812  3.81%     -    1s
     0     0 9731.33661    0   55 9387.96296 9731.33661  3.66%     -    1s
     0     0 9731.33661    0   55 9387.96296 9731.33661  3.66%     -    1s
     0     0 9730.70600    0   52 9387.96296 9730.70600  3.65%     -    1s
     0     0 9730.70600    0   55 9387.96296 9730.70600  3.65%     -    1s
     0     0 9730.70600    0   58 9387.96296 9730.70600  3.65%     -    1s
     0     0 9730.70600    0   58 9387.96296 9730.70600  3.65%     -    1s
     0     0 9729.97798    0   35 9387.96296 9729.97798  3.64%     -    1s
     0     0 9729.97798    0   41 9387.96296 9729.97798  3.64%     -    1s
H    0     0                    9429.4444444 9729.97798  3.19%     -    1s
     0     0 9729.97798    0   35 9429.44444 9729.97798  3.19%     -    1s
     0     0 9729.97798    0   44 9429.44444 9729.97798  3.19%     -    1s
     0     0 9729.97798    0   41 9429.44444 9729.97798  3.19%     -    2s
     0     0 9729.97798    0   41 9429.44444 9729.97798  3.19%     -    2s
     0     2 9729.97798    0   41 9429.44444 9729.97798  3.19%     -    2s
H   88    87                    9498.3839651 9729.97798  2.44%   164    2s
H  141   127                    9519.6460145 9729.97798  2.21%   130    2s
*  249   201              24    9537.0577573 9729.97798  2.02%   122    2s
H  279   214                    9567.8164430 9729.97798  1.69%   122    2s
H  546   360                    9574.8015873 9729.20162  1.61%   114    5s
  1641   893 9615.13161   20   66 9574.80159 9710.25254  1.41%   112   10s
H 2221   872                    9583.9272111 9676.12604  0.96%   122   13s

Cutting planes:
  Gomory: 14
  Cover: 11
  Implied bound: 12
  Projected implied bound: 5
  Clique: 1
  MIR: 204
  StrongCG: 1
  Flow cover: 306
  Relax-and-lift: 19

Explored 2254 nodes (284270 simplex iterations) in 13.83 seconds (11.63 work units)
Thread count was 20 (of 20 available processors)

Solution count 10: 9583.93 9574.8 9567.82 ... 8388.3

Optimal solution found (tolerance 1.00e-02)
Best objective 9.583927211074e+03, best bound 9.676126040575e+03, gap 0.9620%

User-callback calls 8215, time in user-callback 0.00 sec
Set parameter TimeLimit to value 35980
Gurobi Optimizer version 9.5.2 build v9.5.2rc0 (win64)
Thread count: 10 physical cores, 20 logical processors, using up to 20 threads
Optimize a model with 8405 rows, 2977 columns and 26557 nonzeros
Model fingerprint: 0xd9276f4d
Variable types: 2305 continuous, 672 integer (672 binary)
Coefficient statistics:
  Matrix range     [1e-01, 8e+02]
  Objective range  [1e+00, 1e+00]
  Bounds range     [1e+03, 1e+03]
  RHS range        [1e+00, 1e+08]

MIP start from previous solve did not produce a new incumbent solution

Presolve removed 3592 rows and 1024 columns
Presolve time: 0.15s
Presolved: 4813 rows, 1953 columns, 16445 nonzeros
Variable types: 1733 continuous, 220 integer (217 binary)
Found heuristic solution: objective 5338.4189059

Root relaxation: objective 8.145655e+03, 3229 iterations, 0.07 seconds (0.09 work units)

    Nodes    |    Current Node    |     Objective Bounds      |     Work
 Expl Unexpl |  Obj  Depth IntInf | Incumbent    BestBd   Gap | It/Node Time

     0     0 8145.65526    0   61 5338.41891 8145.65526  52.6%     -    0s
     0     0 8119.65841    0   82 5338.41891 8119.65841  52.1%     -    0s
H    0     0                    7322.8242408 8119.65841  10.9%     -    0s
     0     0 8082.79267    0   76 7322.82424 8082.79267  10.4%     -    0s
     0     0 8082.79267    0   79 7322.82424 8082.79267  10.4%     -    0s
     0     0 8041.32915    0   90 7322.82424 8041.32915  9.81%     -    0s
     0     0 8038.27125    0   79 7322.82424 8038.27125  9.77%     -    0s
     0     0 8038.22961    0   80 7322.82424 8038.22961  9.77%     -    0s
     0     0 8038.22108    0   79 7322.82424 8038.22108  9.77%     -    0s
H    0     0                    7404.8699801 8038.22108  8.55%     -    0s
     0     0 8016.81380    0   82 7404.86998 8016.81380  8.26%     -    1s
     0     0 7943.27305    0   67 7404.86998 7943.27305  7.27%     -    1s
     0     0 7935.78167    0   72 7404.86998 7935.78167  7.17%     -    1s
     0     0 7920.55461    0   69 7404.86998 7920.55461  6.96%     -    1s
     0     0 7920.55461    0   69 7404.86998 7920.55461  6.96%     -    1s
     0     0 7882.39399    0   76 7404.86998 7882.39399  6.45%     -    1s
H    0     0                    7529.3518519 7882.36525  4.69%     -    1s
     0     0 7882.36525    0   61 7529.35185 7882.36525  4.69%     -    1s
     0     0 7882.36525    0   66 7529.35185 7882.36525  4.69%     -    1s
     0     0 7882.25653    0   67 7529.35185 7882.25653  4.69%     -    1s
     0     0 7882.25653    0   64 7529.35185 7882.25653  4.69%     -    1s
     0     0 7853.53271    0   55 7529.35185 7853.53271  4.31%     -    1s
     0     0 7853.53271    0   58 7529.35185 7853.53271  4.31%     -    1s
     0     0 7853.53271    0   58 7529.35185 7853.53271  4.31%     -    1s
     0     0 7853.53271    0   61 7529.35185 7853.53271  4.31%     -    1s
     0     0 7853.53271    0   54 7529.35185 7853.53271  4.31%     -    1s
     0     0 7853.53271    0   51 7529.35185 7853.53271  4.31%     -    1s
H    0     0                    7534.5022205 7853.53271  4.23%     -    1s
     0     0 7853.53271    0   42 7534.50222 7853.53271  4.23%     -    1s
     0     0 7853.53271    0   45 7534.50222 7853.53271  4.23%     -    1s
     0     0 7853.53271    0   45 7534.50222 7853.53271  4.23%     -    1s
     0     0 7853.53271    0   44 7534.50222 7853.53271  4.23%     -    2s
     0     2 7853.53271    0   44 7534.50222 7853.53271  4.23%     -    2s
H   15    26                    7643.5304191 7853.53271  2.75%   269    2s
H   85    88                    7686.9444444 7851.89154  2.15%   210    2s
H  389   288                    7700.3284095 7851.45992  1.96%   154    3s
  1478   695     cutoff   24      7700.32841 7835.01341  1.75%   138    5s
H 1946   737                    7722.0555556 7834.35648  1.45%   142    6s
  3369  1180 7738.15109   14   44 7722.05556 7820.19562  1.27%   140   10s
  3406  1207 7791.43312   15   30 7722.05556 7820.19562  1.27%   143   15s

Cutting planes:
  Gomory: 13
  Cover: 10
  Implied bound: 14
  Projected implied bound: 3
  MIR: 207
  StrongCG: 1
  Flow cover: 433
  Relax-and-lift: 21

Explored 4295 nodes (643401 simplex iterations) in 18.74 seconds (15.60 work units)
Thread count was 20 (of 20 available processors)

Solution count 9: 7722.06 7700.33 7686.94 ... 5338.42

Optimal solution found (tolerance 1.00e-02)
Best objective 7.722055555556e+03, best bound 7.791549755306e+03, gap 0.8999%

User-callback calls 12423, time in user-callback 0.01 sec
Set parameter TimeLimit to value 35961
Gurobi Optimizer version 9.5.2 build v9.5.2rc0 (win64)
Thread count: 10 physical cores, 20 logical processors, using up to 20 threads
Optimize a model with 9966 rows, 3481 columns and 31572 nonzeros
Model fingerprint: 0x4814a448
Variable types: 2761 continuous, 720 integer (720 binary)
Coefficient statistics:
  Matrix range     [1e-01, 8e+02]
  Objective range  [1e+00, 1e+00]
  Bounds range     [1e+03, 1e+03]
  RHS range        [1e+00, 1e+08]

MIP start from previous solve did not produce a new incumbent solution

Presolve removed 4790 rows and 1365 columns
Presolve time: 0.16s
Presolved: 5176 rows, 2116 columns, 17677 nonzeros
Variable types: 1902 continuous, 214 integer (211 binary)
Found heuristic solution: objective 4718.4189059

Root relaxation: objective 7.195655e+03, 4107 iterations, 0.07 seconds (0.07 work units)

    Nodes    |    Current Node    |     Objective Bounds      |     Work
 Expl Unexpl |  Obj  Depth IntInf | Incumbent    BestBd   Gap | It/Node Time

     0     0 7195.65526    0   56 4718.41891 7195.65526  52.5%     -    0s
H    0     0                    6109.4068190 7181.88628  17.6%     -    0s
     0     0 7181.88628    0   76 6109.40682 7181.88628  17.6%     -    0s
H    0     0                    6439.1666667 7181.88628  11.5%     -    0s
     0     0 7181.88628    0   80 6439.16667 7181.88628  11.5%     -    0s
     0     0 7032.79642    0   72 6439.16667 7032.79642  9.22%     -    0s
     0     0 7025.45965    0   63 6439.16667 7025.45965  9.11%     -    0s
     0     0 7025.26385    0   70 6439.16667 7025.26385  9.10%     -    0s
     0     0 7025.26385    0   70 6439.16667 7025.26385  9.10%     -    0s
     0     0 6999.39328    0   77 6439.16667 6999.39328  8.70%     -    1s
     0     0 6912.48059    0   76 6439.16667 6912.48059  7.35%     -    1s
     0     0 6912.48059    0   76 6439.16667 6912.48059  7.35%     -    1s
     0     0 6911.93666    0   70 6439.16667 6911.93666  7.34%     -    1s
     0     0 6910.18112    0   60 6439.16667 6910.18112  7.31%     -    1s
     0     0 6909.81574    0   60 6439.16667 6909.81574  7.31%     -    1s
     0     0 6909.81574    0   60 6439.16667 6909.81574  7.31%     -    1s
     0     0 6909.28542    0   65 6439.16667 6909.28542  7.30%     -    1s
H    0     0                    6468.0738868 6903.19193  6.73%     -    1s
     0     0 6903.19193    0   60 6468.07389 6903.19193  6.73%     -    1s
     0     0 6903.19193    0   60 6468.07389 6903.19193  6.73%     -    1s
H    0     0                    6571.8518519 6903.19193  5.04%     -    1s
     0     0 6903.19193    0   60 6571.85185 6903.19193  5.04%     -    1s
     0     0 6903.19193    0   60 6571.85185 6903.19193  5.04%     -    1s
     0     0 6903.19193    0   60 6571.85185 6903.19193  5.04%     -    1s
     0     0 6903.19193    0   60 6571.85185 6903.19193  5.04%     -    1s
     0     0 6903.19193    0   58 6571.85185 6903.19193  5.04%     -    1s
     0     0 6903.19193    0   59 6571.85185 6903.19193  5.04%     -    1s
     0     0 6903.19193    0   36 6571.85185 6903.19193  5.04%     -    1s
     0     0 6903.19193    0   46 6571.85185 6903.19193  5.04%     -    1s
H    0     0                    6581.7064126 6903.19193  4.88%     -    1s
     0     0 6903.19193    0   39 6581.70641 6903.19193  4.88%     -    2s
     0     0 6903.19193    0   39 6581.70641 6903.19193  4.88%     -    2s
     0     2 6903.19193    0   39 6581.70641 6903.19193  4.88%     -    2s
H   18    26                    6604.4444444 6903.19193  4.52%   272    2s
H   42    46                    6702.3611111 6903.19193  3.00%   279    2s
H  133   118                    6734.5577573 6903.19193  2.50%   203    2s
H  137   118                    6736.9444444 6903.19193  2.47%   202    2s
*  240   153              25    6746.2672659 6903.19193  2.33%   159    3s
H  378   214                    6749.6339651 6903.19193  2.28%   164    3s
H  453   249                    6768.8577666 6903.19193  1.98%   157    4s
   548   284 6855.56945   18   45 6768.85777 6903.19193  1.98%   153    5s
H  549   284                    6795.8839651 6903.19193  1.58%   153    5s

Cutting planes:
  Gomory: 9
  Cover: 15
  Implied bound: 83
  Clique: 2
  MIR: 307
  StrongCG: 1
  Flow cover: 226
  Network: 1
  RLT: 2
  Relax-and-lift: 18

Explored 3294 nodes (533844 simplex iterations) in 8.64 seconds (7.34 work units)
Thread count was 20 (of 20 available processors)

Solution count 10: 6795.88 6768.86 6749.63 ... 6571.85

Optimal solution found (tolerance 1.00e-02)
Best objective 6.795883965069e+03, best bound 6.862770242157e+03, gap 0.9842%

User-callback calls 8235, time in user-callback 0.00 sec
Set parameter TimeLimit to value 35952
Gurobi Optimizer version 9.5.2 build v9.5.2rc0 (win64)
Thread count: 10 physical cores, 20 logical processors, using up to 20 threads
Optimize a model with 11527 rows, 3985 columns and 36587 nonzeros
Model fingerprint: 0x57e7625a
Variable types: 3217 continuous, 768 integer (768 binary)
Coefficient statistics:
  Matrix range     [1e-01, 8e+02]
  Objective range  [1e+00, 1e+00]
  Bounds range     [1e+03, 1e+03]
  RHS range        [1e+00, 1e+08]

MIP start from previous solve did not produce a new incumbent solution

Presolve removed 5402 rows and 1488 columns
Presolve time: 0.21s
Presolved: 6125 rows, 2497 columns, 20942 nonzeros
Variable types: 2286 continuous, 211 integer (208 binary)
Found heuristic solution: objective 4308.4189059

Root relaxation: objective 6.464030e+03, 4698 iterations, 0.10 seconds (0.09 work units)

    Nodes    |    Current Node    |     Objective Bounds      |     Work
 Expl Unexpl |  Obj  Depth IntInf | Incumbent    BestBd   Gap | It/Node Time

     0     0 6464.03026    0   61 4308.41891 6464.03026  50.0%     -    0s
     0     0 6458.71730    0   72 4308.41891 6458.71730  49.9%     -    0s
H    0     0                    5555.8097295 6458.71730  16.3%     -    0s
H    0     0                    5875.3711831 6420.08202  9.27%     -    0s
     0     0 6420.08202    0   69 5875.37118 6420.08202  9.27%     -    0s
     0     0 6420.08202    0   72 5875.37118 6420.08202  9.27%     -    0s
     0     0 6335.79719    0   66 5875.37118 6335.79719  7.84%     -    1s
     0     0 6331.00933    0   61 5875.37118 6331.00933  7.76%     -    1s
     0     0 6331.00933    0   62 5875.37118 6331.00933  7.76%     -    1s
     0     0 6311.50694    0   73 5875.37118 6311.50694  7.42%     -    1s
     0     0 6304.46130    0   66 5875.37118 6304.46130  7.30%     -    1s
     0     0 6304.46130    0   66 5875.37118 6304.46130  7.30%     -    1s
     0     0 6304.25151    0   55 5875.37118 6304.25151  7.30%     -    1s
     0     0 6304.25151    0   54 5875.37118 6304.25151  7.30%     -    1s
     0     0 6304.20319    0   61 5875.37118 6304.20319  7.30%     -    1s
     0     0 6304.15057    0   61 5875.37118 6304.15057  7.30%     -    1s
     0     0 6304.15057    0   61 5875.37118 6304.15057  7.30%     -    1s
     0     0 6304.15057    0   61 5875.37118 6304.15057  7.30%     -    1s
     0     0 6304.15057    0   61 5875.37118 6304.15057  7.30%     -    1s
     0     0 6304.15057    0   61 5875.37118 6304.15057  7.30%     -    1s
     0     0 6304.15057    0   43 5875.37118 6304.15057  7.30%     -    2s
H    0     0                    5962.9166667 6304.15057  5.72%     -    2s
     0     2 6304.15057    0   43 5962.91667 6304.15057  5.72%     -    2s
H   23    26                    5999.1835871 6303.45436  5.07%   339    2s
H   40    46                    6028.0555556 6301.38157  4.53%   343    2s
H  108   120                    6056.7032112 6301.38157  4.04%   270    2s
H  112   120                    6096.5112062 6301.38157  3.36%   270    2s
*  170   165              21    6134.5577573 6301.38157  2.72%   234    2s
*  173   165              20    6136.9444444 6301.38157  2.68%   230    2s
H  302   204                    6149.1553893 6301.38157  2.48%   214    3s
H  377   250                    6153.1328200 6301.38157  2.41%   213    3s
   703   368 6281.08544   12   51 6153.13282 6301.38157  2.41%   207    5s
* 1435   609              26    6163.7698413 6292.00081  2.08%   197    7s
* 2299   896              33    6165.8333333 6287.48813  1.97%   186    8s
  3217  1258 6223.53769   14   45 6165.83333 6281.95090  1.88%   180   10s
  3397  1271 6228.15956   13   58 6165.83333 6280.94423  1.87%   178   15s
  3684  1300 6202.74305   27   24 6165.83333 6273.64631  1.75%   183   20s
* 4102  1190              45    6195.8839651 6273.56532  1.25%   184   21s

Cutting planes:
  Gomory: 22
  Cover: 3
  Implied bound: 15
  Projected implied bound: 3
  MIR: 322
  StrongCG: 2
  Flow cover: 694
  Network: 1
  Relax-and-lift: 25

Explored 4798 nodes (863398 simplex iterations) in 22.74 seconds (16.57 work units)
Thread count was 20 (of 20 available processors)

Solution count 10: 6195.88 6165.83 6163.77 ... 6028.06

Optimal solution found (tolerance 1.00e-02)
Best objective 6.195883965069e+03, best bound 6.238357415988e+03, gap 0.6855%

User-callback calls 13064, time in user-callback 0.01 sec
Set parameter TimeLimit to value 35929
Gurobi Optimizer version 9.5.2 build v9.5.2rc0 (win64)
Thread count: 10 physical cores, 20 logical processors, using up to 20 threads
Optimize a model with 13088 rows, 4489 columns and 41602 nonzeros
Model fingerprint: 0xe95db774
Variable types: 3673 continuous, 816 integer (816 binary)
Coefficient statistics:
  Matrix range     [1e-01, 8e+02]
  Objective range  [1e+00, 1e+00]
  Bounds range     [1e+03, 1e+03]
  RHS range        [1e+00, 1e+08]

MIP start from previous solve did not produce a new incumbent solution

Presolve removed 6796 rows and 1845 columns
Presolve time: 0.22s
Presolved: 6292 rows, 2644 columns, 21487 nonzeros
Variable types: 2447 continuous, 197 integer (194 binary)
Found heuristic solution: objective 3467.4847060

Root relaxation: objective 4.467868e+03, 4824 iterations, 0.09 seconds (0.08 work units)

    Nodes    |    Current Node    |     Objective Bounds      |     Work
 Expl Unexpl |  Obj  Depth IntInf | Incumbent    BestBd   Gap | It/Node Time

     0     0 4467.86786    0   56 3467.48471 4467.86786  28.9%     -    0s
H    0     0                    3795.9062165 4458.05086  17.4%     -    0s
     0     0 4458.05086    0   57 3795.90622 4458.05086  17.4%     -    0s
     0     0 4458.00564    0   63 3795.90622 4458.00564  17.4%     -    0s
     0     0 4457.91228    0   66 3795.90622 4457.91228  17.4%     -    0s
     0     0 4457.91228    0   66 3795.90622 4457.91228  17.4%     -    0s
     0     0 4445.55198    0   57 3795.90622 4445.55198  17.1%     -    0s
     0     0 4444.54959    0   54 3795.90622 4444.54959  17.1%     -    0s
     0     0 4443.85113    0   57 3795.90622 4443.85113  17.1%     -    1s
     0     0 4443.85113    0   57 3795.90622 4443.85113  17.1%     -    1s
     0     0 4421.95532    0   75 3795.90622 4421.95532  16.5%     -    1s
H    0     0                    3846.1111111 4421.95532  15.0%     -    1s
     0     0 4421.28077    0   78 3846.11111 4421.28077  15.0%     -    1s
     0     0 4421.26825    0   81 3846.11111 4421.26825  15.0%     -    1s
     0     0 4421.26825    0   81 3846.11111 4421.26825  15.0%     -    1s
     0     0 4418.86866    0   75 3846.11111 4418.86866  14.9%     -    1s
H    0     0                    3952.6835518 4418.22631  11.8%     -    1s
     0     0 4418.22631    0   84 3952.68355 4418.22631  11.8%     -    1s
     0     0 4418.11160    0   84 3952.68355 4418.11160  11.8%     -    1s
     0     0 4418.10560    0   84 3952.68355 4418.10560  11.8%     -    1s
     0     0 4417.36698    0   91 3952.68355 4417.36698  11.8%     -    1s
     0     0 4417.35112    0   91 3952.68355 4417.35112  11.8%     -    1s
     0     0 4417.32521    0   91 3952.68355 4417.32521  11.8%     -    1s
     0     0 4417.32521    0   94 3952.68355 4417.32521  11.8%     -    1s
     0     0 4416.93131    0  100 3952.68355 4416.93131  11.7%     -    1s
     0     0 4416.92745    0   97 3952.68355 4416.92745  11.7%     -    1s
     0     0 4416.86399    0   97 3952.68355 4416.86399  11.7%     -    2s
     0     0 4416.84915    0   97 3952.68355 4416.84915  11.7%     -    2s
     0     0 4416.84915    0   97 3952.68355 4416.84915  11.7%     -    2s
     0     0 4416.74068    0  100 3952.68355 4416.74068  11.7%     -    2s
     0     0 4416.74068    0  100 3952.68355 4416.74068  11.7%     -    2s
     0     0 4414.37168    0   99 3952.68355 4414.37168  11.7%     -    2s
     0     0 4409.90195    0   96 3952.68355 4409.90195  11.6%     -    2s
     0     0 4409.90195    0   96 3952.68355 4409.90195  11.6%     -    2s
     0     0 4409.90195    0   96 3952.68355 4409.90195  11.6%     -    2s
     0     0 4409.90195    0   96 3952.68355 4409.90195  11.6%     -    2s
     0     0 4409.90195    0   96 3952.68355 4409.90195  11.6%     -    2s
     0     0 4402.56956    0   96 3952.68355 4402.56956  11.4%     -    2s
     0     0 4402.56956    0   93 3952.68355 4402.56956  11.4%     -    2s
     0     2 4402.56956    0   90 3952.68355 4402.56956  11.4%     -    2s
H   90    98                    3968.6111146 4402.56956  10.9%   312    3s
H  191   174                    3986.8433576 4402.56956  10.4%   230    3s
H  198   174                    4012.9630254 4402.56956  9.71%   229    3s
H  360   283                    4052.4074074 4401.81875  8.62%   216    4s
H  407   334                    4114.7509663 4401.81875  6.98%   206    4s
H  412   334                    4186.8433576 4401.81875  5.13%   206    4s
   790   454 4384.14362   14   69 4186.84336 4384.14362  4.71%   188    5s
H  976   502                    4234.3433576 4383.13283  3.51%   187    6s
H 1076   539                    4236.0777527 4352.83261  2.76%   183    6s

Cutting planes:
  Gomory: 10
  Implied bound: 78
  MIR: 368
  Flow cover: 323
  RLT: 1
  Relax-and-lift: 44

Explored 3142 nodes (437290 simplex iterations) in 9.71 seconds (6.75 work units)
Thread count was 20 (of 20 available processors)

Solution count 10: 4236.08 4234.34 4186.84 ... 3846.11

Optimal solution found (tolerance 1.00e-02)
Best objective 4.236077752658e+03, best bound 4.274661666044e+03, gap 0.9108%

User-callback calls 8241, time in user-callback 0.00 sec
Set parameter TimeLimit to value 35917
Gurobi Optimizer version 9.5.2 build v9.5.2rc0 (win64)
Thread count: 10 physical cores, 20 logical processors, using up to 20 threads
Optimize a model with 14649 rows, 4993 columns and 46617 nonzeros
Model fingerprint: 0x3e3b9dd7
Variable types: 4129 continuous, 864 integer (864 binary)
Coefficient statistics:
  Matrix range     [1e-01, 8e+02]
  Objective range  [1e+00, 1e+00]
  Bounds range     [1e+03, 1e+03]
  RHS range        [1e+00, 1e+08]

